letting n =  10
letting blocks =  [[1, 4], [1, 7], [2, 1], [2, 2], [2, 3], [2, 5], [2, 8], [3, 6], [3, 8], [3, 9], [4, 2], [4, 3], [4, 4], [4, 5], [4, 7], [4, 9], [5, 1], [5, 6], [5, 7], [5, 9], [6, 1], [6, 10], [7, 1], [7, 3], [7, 4], [7, 5], [7, 7], [7, 9], [8, 4], [8, 8], [8, 10], [9, 2], [9, 5], [9, 7], [9, 8], [10, 2], [10, 3], [10, 4], [10, 6], [10, 10]]
